tsp_instances/TSP20/instance103.tsp
NODE_COORD_SECTION
0 123 170
1 3 35
2 113 83
3 21 125
4 145 129
5 36 72
6 83 87
7 147 39
8 58 170
9 80 150
10 22 32
11 50 130
12 190 133
13 14 172
14 143 86
15 123 103
16 51 82
17 133 143
18 57 19
19 43 186
