tsp_instances/TSP20/instance103.opt.tour
TOUR_SECTION
1
10
9
20
14
4
12
7
17
6
2
11
19
8
3
16
15
13
5
18
-1